c clasp version 2.1.1
c Reading from pb_300_09.cnf
c Solving...
s UNKNOWN

c TIME LIMIT    : 1
c Models        : 0+    
c Time          : 99999.976s (Solving: 99999.08s 1st Model: 0.00s Unsat: 0.00s)
c CPU Time      : 99839.920s
c Choices       : 114005296
c Conflicts     : 97786370
c Restarts      : 31     (Average: 3154399.03 Last: 73632164)

c Variables     : 370690 (Eliminated:  106 Frozen:    0)
c Constraints   : 409438 (Binary: 57.5% Ternary: 40.9% Other:  1.5%)
c Lemmas        : 97786370 (Binary:  0.0% Ternary:  0.0% Other:100.0%)
c   Conflict    : 97786370 (Average Length: 371.0) 
c   Loop        : 0      (Average Length: 0.0) 
c   Other       : 0      (Average Length: 0.0)
c   Deleted     : 97631000
